(set-logic QF_S)
(declare-fun var0 () String)
(declare-fun var1 () String)
(declare-fun var2 () String)
(declare-fun var3 () Int)
(declare-fun var4 () String)
(declare-fun var5 () Int)
(declare-fun var6 () Int)
(declare-fun var7 () Int)
(assert (str.in.re (str.replace var0 var1 "(q""~") (re.+ re.allchar)))
(assert (str.prefixof (str.at var2 var3) (str.replace var4 var1 var4)))
(assert (str.contains (str.at var2 var5) (str.replace var4 var0 var1)))
(assert (str.prefixof (str.substr var1 var6 56) (str.substr var2 var7 var7)))
(check-sat)